p cnf 46 122
38 39 -43 0
-9 10 21 0
-7 -8 -20 0
7 -8 20 0
17 -18 25 0
11 7 -34 0
-11 -7 -34 0
44 -45 46 0
-27 -28 -30 0
31 46 0
-23 -24 -28 0
-9 -3 -36 0
42 -43 45 0
-13 14 23 0
-21 -22 -27 0
-17 18 25 0
-19 -20 -26 0
-9 -10 -21 0
-1 5 35 0
15 -16 24 0
38 -39 43 0
15 8 -39 0
25 26 -29 0
-40 41 44 0
3 -4 18 0
-31 -46 0
1 2 -17 0
-42 43 45 0
-15 -8 -39 0
21 22 -27 0
-19 20 26 0
36 -37 42 0
19 -20 26 0
-36 -37 -42 0
13 -4 33 0
29 -30 31 0
40 -41 44 0
-13 -4 -33 0
13 -14 23 0
11 -7 34 0
1 -5 35 0
9 10 -21 0
-15 -16 -24 0
-1 -2 -17 0
-34 35 41 0
42 43 -45 0
25 -26 29 0
13 4 -33 0
-15 8 39 0
-10 16 38 0
-17 -18 -25 0
36 37 -42 0
19 20 -26 0
3 4 -18 0
7 8 -20 0
-3 4 18 0
9 3 -36 0
34 35 -41 0
-6 14 37 0
-32 33 40 0
11 -12 22 0
-13 4 33 0
-25 -26 -29 0
21 -22 27 0
-32 -33 -40 0
-6 -14 -37 0
-23 24 28 0
-11 12 22 0
-10 -16 -38 0
9 -10 21 0
-13 -14 -23 0
-11 -12 -22 0
2 12 -32 0
-44 45 46 0
6 -14 37 0
-36 37 42 0
-29 -30 -31 0
-15 16 24 0
2 -12 32 0
-44 -45 -46 0
27 -28 30 0
-34 -35 -41 0
-38 -39 -43 0
-29 30 31 0
-7 8 20 0
5 -6 19 0
5 6 -19 0
-27 28 30 0
15 -8 39 0
9 -3 36 0
1 5 -35 0
44 45 -46 0
11 12 -22 0
-21 22 27 0
-11 7 34 0
10 -16 38 0
32 -33 40 0
32 33 -40 0
6 14 -37 0
15 16 -24 0
10 16 -38 0
13 14 -23 0
29 30 -31 0
-38 39 43 0
-1 2 17 0
34 -35 41 0
23 -24 28 0
-2 -12 -32 0
23 24 -28 0
-25 26 29 0
17 18 -25 0
-5 -6 -19 0
-9 3 36 0
27 28 -30 0
-42 -43 -45 0
-2 12 32 0
-3 -4 -18 0
-5 6 19 0
1 -2 17 0
-1 -5 -35 0
-40 -41 -44 0
40 41 -44 0
